proyfinal/src/viki/013/andrea/andrea-localstore/experimentInOfficeAgust.take6/worker_8/f1fd2b4b-379f-44ed-80b5-8519cccf34cf.als.cnf.out
Reading from standard input... Use '--help' for help.
============================[ Problem Statistics ]=============================
|                                                                             |
|  Number of variables:         87638                                         |
|  Number of clauses:          161767                                         |
|  Parse time:                   0.03 s                                       |
|                                                                             |
============================[ Search Statistics ]==============================
| Conflicts |          ORIGINAL         |          LEARNT          | Progress |
|           |    Vars  Clauses Literals |    Limit  Clauses Lit/Cl |          |
===============================================================================
|       100 |   62029   103939   259645 |    38110      100     19 | 29.221 % |
|       250 |   62029   103939   259645 |    41922      250     29 | 29.221 % |
|       475 |   62005   103843   259412 |    46114      474     86 | 29.249 % |
|       812 |   61889   103363   258208 |    50725      758     80 | 29.381 % |
|      1318 |   61889   103363   258208 |    55798     1264     84 | 29.381 % |
|      2077 |   61869   103285   258021 |    61378     2021     81 | 29.404 % |
|      3216 |   61847   103197   257805 |    67515     3159     86 | 29.429 % |
|      4924 |   49049    65773   166082 |    74267     4734     72 | 44.032 % |
|      7486 |   48868    65197   164703 |    81694     7262     65 | 44.239 % |
|     11330 |   48706    64335   162633 |    89863    10258     60 | 44.424 % |
===============================================================================
restarts              : 52
conflicts             : 11875          (8093 /sec)
decisions             : 57370          (0.00 % random) (39096 /sec)
propagations          : 15965496       (10880111 /sec)
conflict literals     : 669224         (43.04 % deleted)
Memory used           : 30.43 MB
CPU time              : 1.4674 s

UNSATISFIABLE
